111252
111252
109049
109049
109049
109049
108771
108771
108771
106320
104379
103509
102632
102302
102302
102033
99070
99070
99070
99070
98490.3
97975.7
97037.4
97037.4
96577.1
95393.1
95393.1
94853.8
92937.1
92373.6
92373.6
92373.6
92373.6
92373.6
92373.6
92373.6
92314.3
92314.3
92158.4
92094.3
90827
90827
90827
90827
90827
90827
90649.1
90649.1
90649.1
90649.1
89726.7
89726.7
89726.7
89726.7
88379
88379
88379
87979.2
87022.7
87022.7
87022.7
87022.7
87022.7
86837.5
86837.5
85900.7
85900.7
85867.3
84921
84921
84921
84064.1
83288.4
83288.4
83288.4
83288.4
83097
83097
82478.9
82478.9
82478.9
82431.5
82415.9
82132.8
80345.6
78612.3
78612.3
78612.3
78612.3
78612.3
78612.3
77984.4
77984.4
77984.4
77984.4
77984.4
77984.4
77107
77107
77107
